10
0 62 23 2 70 59 46 35 47 66 
26 0 23 89 9 65 55 74 44 67 
72 4 0 64 98 52 91 71 95 78 
85 79 88 0 93 71 35 60 97 80 
88 40 86 39 0 28 56 24 82 69 
17 60 96 44 76 0 71 6 8 75 
92 38 56 58 96 83 0 35 92 91 
97 48 27 70 24 69 90 0 35 63 
72 30 81 79 43 51 77 12 0 15 
43 44 87 16 3 62 12 48 93 0 
